3415.72 0
0 27 36 34 25 0 
0 18 21 22 19 33 26 31 32 30 0 
0 109 98 97 104 108 101 99 103 105 112 0 
0 6 1 14 2 5 16 143 146 0 
0 90 83 89 92 79 144 139 145 0 
0 52 59 56 62 55 0 
0 76 77 85 87 86 88 75 93 95 96 94 0 
0 42 48 50 45 41 58 53 0 
0 102 17 9 3 10 4 7 74 65 68 70 71 54 63 0 
0 107 111 110 15 8 11 12 13 150 100 106 0 
0 137 80 78 82 81 91 84 142 147 140 141 148 138 149 0 
0 57 51 46 44 43 38 40 49 47 39 66 69 72 67 73 133 60 61 0 
0 135 125 124 113 121 0 
0 20 35 28 23 24 29 37 123 120 118 134 130 129 136 64 0 
0 131 126 128 116 122 117 114 119 127 115 132 0 
